10	5
0	4	4	2	3	1
1	1	9
2	4	7	6	5	9
3	3	6	7	5
4	4	7	9	6	5
5	1	10
6	2	10	8
7	1	11
8	2	5	11
9	1	11
10	1	11
11	0
0	0	0	0	0	0	0
1	1	2	1	3	1	3
2	9	5	1	4	4	1
3	10	5	2	5	2	3
4	10	3	4	1	4	4
5	2	2	5	2	2	4
6	3	3	5	5	2	1
7	1	3	2	4	3	4
8	7	3	5	5	3	2
9	4	2	3	2	1	3
10	10	5	4	5	2	4
11	0	0	0	0	0	0
5	5	5	5	5
